; benchmark generated from python API
(set-info :status unknown)
(declare-fun s () Int)
(define-funs-rec ( ( T2_06 ((x!1 Int)) Int)
                   ( p2_06 ((x!1 Int)) Int)
                   ( T2_02 ((x!1 Int)) Int)
                   ( p2_02 ((x!1 Int)) Int))
                 ( ((_ p2_06 0) x!1)
                   (let ((a!1 (mod (- x!1 ((_ p2_06 0) (div x!1 2))) 2)))
                     (ite (= x!1 0) 0 a!1))
                   (let ((a!1 (/ (- 1.0 (^ (- 1) ((_ p2_02 0) x!1))) 2.0)))
                     (to_int a!1))
                   (ite (= x!1 0) 0 (+ ((_ p2_02 0) (div x!1 2)) (mod x!1 2)))))
(assert
 (forall ((n Int) )(let ((?x406 ((_ T2_06 0) n)))
 (let (($x407 (= ?x406 n)))
 (let ((?x408 ((_ T2_02 0) n)))
 (let (($x409 (= ?x408 n)))
 (let (($x410 (and $x409 $x407)))
 (let (($x387 (< n s)))
 (let (($x411 (>= n 0)))
 (let (($x412 (and $x411 $x387)))
 (=> $x412 $x410))))))))))
 )
(assert
 (forall ((n Int) )(let ((?x406 ((_ T2_06 0) n)))
(let ((?x408 ((_ T2_02 0) n)))
(let (($x383 (= ?x408 ?x406)))
(let (($x411 (>= n 0)))
(=> $x411 $x383))))))
)
(check-sat)
